c This is the enc1_simplified file generate by sty
p cnf 178 618
 -1 2 0
 -2 1 0
 1 3 0
 -3 -1 0
 -4 -1 5 0
 -5 4 0
 -5 1 0
 -4 1 6 0
 -6 4 0
 -6 -1 0
 4 -1 7 0
 -7 -4 0
 -7 1 0
 4 1 8 0
 -8 -4 0
 -8 -1 0
 -9 4 0
 9 -4 0
 -10 -9 0
 10 9 0
 -11 -10 0
 11 10 0
 -12 11 0
 12 -11 0
 -13 -12 14 0
 -14 13 0
 -14 12 0
 -13 12 15 0
 -15 13 0
 -15 -12 0
 13 -12 16 0
 -16 -13 0
 -16 12 0
 13 12 17 0
 -17 -13 0
 -17 -12 0
 -18 -13 0
 18 13 0
 -19 18 0
 19 -18 0
 -20 -19 0
 20 19 0
 -21 -1 0
 21 1 0
 -22 21 -4 0
 22 -21 -4 0
 22 -21 4 0
 22 21 4 0
 -23 -22 -9 0
 -23 22 9 0
 23 22 -9 0
 23 -22 9 0
 -24 23 10 0
 24 -23 -10 0
 24 23 -10 0
 24 -23 10 0
 -25 24 -11 0
 -25 -24 11 0
 -25 24 11 0
 25 -24 -11 0
 -26 -25 12 0
 26 -25 -12 0
 26 25 -12 0
 26 25 12 0
 -27 -26 -13 0
 -27 -26 13 0
 27 26 -13 0
 27 26 13 0
 -28 -27 -18 0
 -28 27 -18 0
 28 -27 18 0
 28 27 18 0
 -29 -28 19 0
 29 -28 -19 0
 29 28 -19 0
 29 28 19 0
 -30 29 -20 0
 -30 -29 20 0
 -30 29 20 0
 30 -29 -20 0
 -31 -21 32 0
 -32 31 0
 -32 21 0
 -31 21 33 0
 -33 31 0
 -33 -21 0
 31 -21 34 0
 -34 -31 0
 -34 21 0
 31 21 35 0
 -35 -31 0
 -35 -21 0
 -36 -31 -22 0
 -36 31 -22 0
 36 -31 22 0
 36 31 22 0
 -37 36 -23 0
 37 -36 -23 0
 37 -36 23 0
 37 36 23 0
 -38 37 -24 0
 -38 -37 24 0
 38 -37 -24 0
 38 37 24 0
 -39 38 -25 0
 39 -38 -25 0
 39 -38 25 0
 39 38 25 0
 -40 -39 -26 0
 -40 39 -26 0
 40 -39 26 0
 40 39 26 0
 -41 -40 -27 0
 -41 -40 27 0
 -41 40 27 0
 41 40 -27 0
 -42 -41 -28 0
 -42 41 -28 0
 -42 -41 28 0
 42 41 28 0
 -43 -42 -29 0
 -43 42 -29 0
 43 -42 29 0
 43 42 29 0
 -44 -43 30 0
 44 -43 -30 0
 44 43 -30 0
 44 43 30 0
 -45 31 0
 45 -31 0
 -46 45 -36 0
 -46 -45 36 0
 46 -45 -36 0
 46 45 36 0
 -47 -46 -37 0
 -47 46 -37 0
 -47 46 37 0
 47 -46 37 0
 -48 47 -38 0
 -48 -47 38 0
 -48 47 38 0
 48 -47 -38 0
 -49 -48 -39 0
 -49 48 -39 0
 49 -48 39 0
 49 48 39 0
 -50 -49 40 0
 50 -49 -40 0
 50 49 -40 0
 50 49 40 0
 -51 50 -41 0
 51 -50 -41 0
 51 -50 41 0
 51 50 41 0
 -52 -51 -42 0
 -52 51 -42 0
 -52 51 42 0
 52 -51 42 0
 -53 -52 -43 0
 -53 52 -43 0
 -53 -52 43 0
 53 52 43 0
 -54 -53 -44 0
 -54 53 -44 0
 -54 -53 44 0
 54 53 44 0
 -55 -45 0
 55 45 0
 -56 55 46 0
 56 -55 -46 0
 56 55 -46 0
 56 -55 46 0
 -57 -56 -47 0
 -57 -56 47 0
 -57 56 47 0
 57 56 -47 0
 -58 57 -48 0
 -58 57 48 0
 58 -57 -48 0
 58 -57 48 0
 -59 -58 -49 60 0
 -60 59 0
 -60 58 0
 -60 49 0
 -59 58 -49 61 0
 -61 59 0
 -61 -58 0
 -61 49 0
 -59 -58 49 62 0
 -62 59 0
 -62 58 0
 -62 -49 0
 -59 58 49 63 0
 -63 59 0
 -63 -58 0
 -63 -49 0
 59 -58 -49 64 0
 -64 -59 0
 -64 58 0
 -64 49 0
 59 58 -49 65 0
 -65 -59 0
 -65 -58 0
 -65 49 0
 59 -58 49 66 0
 -66 -59 0
 -66 58 0
 -66 -49 0
 59 58 49 67 0
 -67 -59 0
 -67 -58 0
 -67 -49 0
 -68 -59 -50 0
 -68 59 -50 0
 68 -59 50 0
 68 59 50 0
 -69 -68 -51 0
 -69 68 -51 0
 -69 -68 51 0
 69 68 51 0
 -70 -69 -52 0
 -70 69 -52 0
 70 -69 52 0
 70 69 52 0
 -71 -70 53 0
 -71 70 53 0
 71 -70 -53 0
 71 70 -53 0
 -72 -71 -54 0
 -72 71 54 0
 72 71 -54 0
 72 -71 54 0
 -73 -55 0
 73 55 0
 -74 -73 -56 75 0
 -75 74 0
 -75 73 0
 -75 56 0
 -74 73 -56 76 0
 -76 74 0
 -76 -73 0
 -76 56 0
 -74 -73 56 77 0
 -77 74 0
 -77 73 0
 -77 -56 0
 -74 73 56 78 0
 -78 74 0
 -78 -73 0
 -78 -56 0
 74 -73 -56 79 0
 -79 -74 0
 -79 73 0
 -79 56 0
 74 73 -56 80 0
 -80 -74 0
 -80 -73 0
 -80 56 0
 74 -73 56 81 0
 -81 -74 0
 -81 73 0
 -81 -56 0
 74 73 56 82 0
 -82 -74 0
 -82 -73 0
 -82 -56 0
 -83 74 -57 0
 83 -74 -57 0
 83 -74 57 0
 83 74 57 0
 -84 83 58 0
 84 -83 -58 0
 84 83 -58 0
 84 -83 58 0
 -85 -84 -59 86 0
 -86 85 0
 -86 84 0
 -86 59 0
 -85 84 -59 87 0
 -87 85 0
 -87 -84 0
 -87 59 0
 -85 -84 59 88 0
 -88 85 0
 -88 84 0
 -88 -59 0
 -85 84 59 89 0
 -89 85 0
 -89 -84 0
 -89 -59 0
 85 -84 -59 90 0
 -90 -85 0
 -90 84 0
 -90 59 0
 85 84 -59 91 0
 -91 -85 0
 -91 -84 0
 -91 59 0
 85 -84 59 92 0
 -92 -85 0
 -92 84 0
 -92 -59 0
 85 84 59 93 0
 -93 -85 0
 -93 -84 0
 -93 -59 0
 -94 -85 -68 0
 -94 -85 68 0
 -94 85 68 0
 94 85 -68 0
 -95 -94 -69 0
 95 94 -69 0
 95 -94 69 0
 95 94 69 0
 -96 95 70 0
 96 -95 -70 0
 96 95 -70 0
 96 -95 70 0
 -97 -96 -71 98 0
 -98 97 0
 -98 96 0
 -98 71 0
 -97 96 -71 99 0
 -99 97 0
 -99 -96 0
 -99 71 0
 -97 -96 71 100 0
 -100 97 0
 -100 96 0
 -100 -71 0
 -97 96 71 101 0
 -101 97 0
 -101 -96 0
 -101 -71 0
 97 -96 -71 102 0
 -102 -97 0
 -102 96 0
 -102 71 0
 97 96 -71 103 0
 -103 -97 0
 -103 -96 0
 -103 71 0
 97 -96 71 104 0
 -104 -97 0
 -104 96 0
 -104 -71 0
 97 96 71 105 0
 -105 -97 0
 -105 -96 0
 -105 -71 0
 -106 -97 -72 107 0
 -107 106 0
 -107 97 0
 -107 72 0
 -106 97 -72 108 0
 -108 106 0
 -108 -97 0
 -108 72 0
 -106 -97 72 109 0
 -109 106 0
 -109 97 0
 -109 -72 0
 -106 97 72 110 0
 -110 106 0
 -110 -97 0
 -110 -72 0
 106 -97 -72 111 0
 -111 -106 0
 -111 97 0
 -111 72 0
 106 97 -72 112 0
 -112 -106 0
 -112 -97 0
 -112 72 0
 106 -97 72 113 0
 -113 -106 0
 -113 97 0
 -113 -72 0
 106 97 72 114 0
 -114 -106 0
 -114 -97 0
 -114 -72 0
 -115 -73 0
 115 73 0
 -116 -115 -74 0
 -116 115 -74 0
 -116 115 74 0
 116 -115 74 0
 -117 116 -83 0
 -117 -116 83 0
 -117 116 83 0
 117 -116 -83 0
 -118 -117 84 0
 118 -117 -84 0
 118 117 -84 0
 118 117 84 0
 -119 118 -85 0
 119 -118 -85 0
 119 -118 85 0
 119 118 85 0
 -120 -119 -94 0
 -120 119 94 0
 120 119 -94 0
 120 -119 94 0
 -121 120 -95 0
 121 -120 -95 0
 121 -120 95 0
 121 120 95 0
 -122 -121 -96 123 0
 -123 122 0
 -123 121 0
 -123 96 0
 -122 121 -96 124 0
 -124 122 0
 -124 -121 0
 -124 96 0
 -122 -121 96 125 0
 -125 122 0
 -125 121 0
 -125 -96 0
 -122 121 96 126 0
 -126 122 0
 -126 -121 0
 -126 -96 0
 122 -121 -96 127 0
 -127 -122 0
 -127 121 0
 -127 96 0
 122 121 -96 128 0
 -128 -122 0
 -128 -121 0
 -128 96 0
 122 -121 96 129 0
 -129 -122 0
 -129 121 0
 -129 -96 0
 122 121 96 130 0
 -130 -122 0
 -130 -121 0
 -130 -96 0
 -131 -122 -97 0
 -131 122 -97 0
 131 -122 97 0
 131 122 97 0
 -132 131 -106 0
 -132 -131 106 0
 132 -131 -106 0
 132 131 106 0
 -133 115 0
 133 -115 0
 -134 133 -116 0
 134 -133 -116 0
 134 -133 116 0
 134 133 116 0
 -135 134 -117 0
 -135 134 117 0
 135 -134 -117 0
 135 -134 117 0
 -136 135 118 0
 136 -135 -118 0
 136 135 -118 0
 136 -135 118 0
 -137 -136 119 0
 -137 136 119 0
 137 -136 -119 0
 137 136 -119 0
 -138 -137 -120 0
 -138 -137 120 0
 138 137 -120 0
 138 137 120 0
 -139 138 121 0
 139 -138 -121 0
 139 138 -121 0
 139 -138 121 0
 -140 139 -122 0
 -140 -139 122 0
 140 -139 -122 0
 140 139 122 0
 -141 140 -131 0
 -141 -140 131 0
 -141 140 131 0
 141 -140 -131 0
 -142 -141 -132 0
 142 141 -132 0
 142 -141 132 0
 142 141 132 0
 -143 133 0
 143 -133 0
 -144 -143 -134 145 0
 -145 144 0
 -145 143 0
 -145 134 0
 -144 143 -134 146 0
 -146 144 0
 -146 -143 0
 -146 134 0
 -144 -143 134 147 0
 -147 144 0
 -147 143 0
 -147 -134 0
 -144 143 134 148 0
 -148 144 0
 -148 -143 0
 -148 -134 0
 144 -143 -134 149 0
 -149 -144 0
 -149 143 0
 -149 134 0
 144 143 -134 150 0
 -150 -144 0
 -150 -143 0
 -150 134 0
 144 -143 134 151 0
 -151 -144 0
 -151 143 0
 -151 -134 0
 144 143 134 152 0
 -152 -144 0
 -152 -143 0
 -152 -134 0
 -153 -144 -135 0
 -153 144 -135 0
 -153 144 135 0
 153 -144 135 0
 -154 -153 -136 0
 -154 -153 136 0
 -154 153 136 0
 154 153 -136 0
 -155 -154 -137 0
 -155 154 -137 0
 155 -154 137 0
 155 154 137 0
 -156 -155 -138 157 0
 -157 156 0
 -157 155 0
 -157 138 0
 -156 155 -138 158 0
 -158 156 0
 -158 -155 0
 -158 138 0
 -156 -155 138 159 0
 -159 156 0
 -159 155 0
 -159 -138 0
 -156 155 138 160 0
 -160 156 0
 -160 -155 0
 -160 -138 0
 156 -155 -138 161 0
 -161 -156 0
 -161 155 0
 -161 138 0
 156 155 -138 162 0
 -162 -156 0
 -162 -155 0
 -162 138 0
 156 -155 138 163 0
 -163 -156 0
 -163 155 0
 -163 -138 0
 156 155 138 164 0
 -164 -156 0
 -164 -155 0
 -164 -138 0
 -165 156 -139 0
 -165 156 139 0
 165 -156 -139 0
 165 -156 139 0
 -166 -165 -140 0
 166 165 -140 0
 166 -165 140 0
 166 165 140 0
 -167 166 141 0
 167 -166 -141 0
 167 166 -141 0
 167 -166 141 0
 -168 167 -142 0
 -168 -167 142 0
 168 -167 -142 0
 168 167 142 0
 -169 -143 0
 169 143 0
 -170 -169 -144 0
 -170 169 -144 0
 -170 -169 144 0
 170 169 144 0
 -171 170 153 0
 171 -170 -153 0
 171 170 -153 0
 171 -170 153 0
 -172 -171 -154 0
 -172 171 154 0
 172 171 -154 0
 172 -171 154 0
 -173 -172 -155 0
 173 172 -155 0
 173 -172 155 0
 173 172 155 0
 -174 -173 -156 0
 174 173 -156 0
 174 -173 156 0
 174 173 156 0
 -175 174 -165 0
 -175 174 165 0
 175 -174 -165 0
 175 -174 165 0
 -176 175 -166 0
 -176 -175 166 0
 176 -175 -166 0
 176 175 166 0
 -177 -176 -167 0
 -177 -176 167 0
 177 176 -167 0
 177 176 167 0
 -178 -177 -168 0
 -178 177 -168 0
 -178 -177 168 0
 178 177 168 0
